(set-info :smt-lib-version 2.6)
(set-logic QF_FP)
(set-option :produce-models true)
(set-info :source |Random FP created by PyMPF|)
(set-info :license |https://www.gnu.org/licenses/gpl-3.0.html|)
(set-info :category random)
(set-info :status sat)
(declare-const x Float32)
(assert (= x (fp #b0 #b10101110 #b11100101000011000000011)))
;; x should be Float32(0x57728603 [Rational(266657389871104), 266657389871104.000000])

(declare-const y Float32)
(assert (= y (fp #b1 #b10100111 #b01101000011111011101100)))
;; y should be Float32(0xD3B43EEC [Rational(-1548299534336), -1548299534336.000000])

(declare-const z Float32)
(assert (= z ((_ to_fp 8 24) #x7F800000)))
;; z should be Float32(+oo)

(declare-const result Float32)
(assert (= result (fp.fma RNA x y z)))
(assert (= result (fp #b0 #b11111111 #b00000000000000000000000)))
(check-sat)
(exit)
